Maximize
 obj: c_0 +c_1 +c_2 +c_3 +c_4 +c_5 +c_6 +c_7 +c_8 +c_9 +c_10 +c_11 +c_12 +c_13 +c_14 +c_15
  +c_16 +c_17 +c_18 +c_19 +c_20 +c_21 +c_22 +c_23 +c_24 +c_25 +c_26 +c_27 +c_28 +c_29
  +c_30 +c_31 +c_32 +c_33 +c_34 +c_35 +c_36 +c_37 +c_38 +c_39 +c_40 +c_41 +c_42 +c_43
  +c_44 +c_45 +c_46 +c_47 +c_48 +c_49 +c_50 +c_51 +c_52 +c_53 +c_54 +c_55 +c_56 +c_57
  +c_58 +c_59 +c_60 +c_61 +c_62 +c_63 +c_64 +c_65 +c_66 +c_67 +c_68 +c_69 +c_70 +c_71
  +c_72 +c_73 +c_74 +c_75 +c_76 +c_77 +c_78 +c_79 +c_80 +c_81 +c_82 +c_83 +c_84 +c_85
  +c_86 +c_87 +c_88 +c_89 +c_90 +c_91 +c_92 +c_93 +c_94 +c_95 +c_96 +c_97 +c_98 +c_99
  +c_100 +c_101 +c_102 +c_103 +c_104 +c_105 +c_106 +c_107 +c_108 +c_109 +c_110 +c_111
  +c_112 +0.000973 r_0 +0.000973 r_1 +0.000973 r_2 +0.000965 r_3 +0.000965 r_4
  +0.000947 r_5 +0.000912 r_6 +0.000912 r_7 +0.000903 r_8 +0.000885 r_9 +0.000885 r_10
  +0.000885 r_11 +0.000885 r_12 +0.000885 r_13 +0.000885 r_14 +0.000885 r_15 +0.000973 b_0
  +0.000973 b_1 +0.000973 b_2 +0.000965 b_3 +0.000965 b_4 +0.000947 b_5 +0.000912 b_6
  +0.000912 b_7 +0.000903 b_8 +0.000885 b_9 +0.000885 b_10 +0.000885 b_11 +0.000885 b_12
  +0.000885 b_13 +0.000885 b_14 +0.000885 b_15
Subject To
 red_nonempty: r_0 +r_1 +r_2 +r_3 +r_4 +r_5 +r_6 +r_7 +r_8 +r_9 +r_10 +r_11 +r_12 +r_13
  +r_14 +r_15 >= 1
 blue_nonempty: b_0 +b_1 +b_2 +b_3 +b_4 +b_5 +b_6 +b_7 +b_8 +b_9 +b_10 +b_11 +b_12 +b_13
  +b_14 +b_15 >= 1
 size_ge: r_0 +r_1 +r_2 +r_3 +r_4 +r_5 +r_6 +r_7 +r_8 +r_9 +r_10 +r_11 +r_12 +r_13 +r_14
  +r_15 +b_0 +b_1 +b_2 +b_3 +b_4 +b_5 +b_6 +b_7 +b_8 +b_9 +b_10 +b_11 +b_12 +b_13 +b_14
  +b_15 >= 9
 size_le: r_0 +r_1 +r_2 +r_3 +r_4 +r_5 +r_6 +r_7 +r_8 +r_9 +r_10 +r_11 +r_12 +r_13 +r_14
  +r_15 +b_0 +b_1 +b_2 +b_3 +b_4 +b_5 +b_6 +b_7 +b_8 +b_9 +b_10 +b_11 +b_12 +b_13 +b_14
  +b_15 <= 9
 disjoint_0: r_0 + b_0 <= 1
 disjoint_1: r_1 + b_1 <= 1
 disjoint_2: r_2 + b_2 <= 1
 disjoint_3: r_3 + b_3 <= 1
 disjoint_4: r_4 + b_4 <= 1
 disjoint_5: r_5 + b_5 <= 1
 disjoint_6: r_6 + b_6 <= 1
 disjoint_7: r_7 + b_7 <= 1
 disjoint_8: r_8 + b_8 <= 1
 disjoint_9: r_9 + b_9 <= 1
 disjoint_10: r_10 + b_10 <= 1
 disjoint_11: r_11 + b_11 <= 1
 disjoint_12: r_12 + b_12 <= 1
 disjoint_13: r_13 + b_13 <= 1
 disjoint_14: r_14 + b_14 <= 1
 disjoint_15: r_15 + b_15 <= 1
 red_ind_0: r_0 + r_1 <= 1
 blue_ind_0: b_0 + b_1 <= 1
 red_ind_1: r_0 + r_2 <= 1
 blue_ind_1: b_0 + b_2 <= 1
 red_ind_2: r_0 + r_3 <= 1
 blue_ind_2: b_0 + b_3 <= 1
 red_ind_3: r_0 + r_4 <= 1
 blue_ind_3: b_0 + b_4 <= 1
 red_ind_4: r_0 + r_5 <= 1
 blue_ind_4: b_0 + b_5 <= 1
 red_ind_5: r_0 + r_7 <= 1
 blue_ind_5: b_0 + b_7 <= 1
 red_ind_6: r_0 + r_8 <= 1
 blue_ind_6: b_0 + b_8 <= 1
 red_ind_7: r_1 + r_2 <= 1
 blue_ind_7: b_1 + b_2 <= 1
 red_ind_8: r_1 + r_3 <= 1
 blue_ind_8: b_1 + b_3 <= 1
 red_ind_9: r_1 + r_4 <= 1
 blue_ind_9: b_1 + b_4 <= 1
 red_ind_10: r_1 + r_5 <= 1
 blue_ind_10: b_1 + b_5 <= 1
 red_ind_11: r_2 + r_3 <= 1
 blue_ind_11: b_2 + b_3 <= 1
 red_ind_12: r_2 + r_4 <= 1
 blue_ind_12: b_2 + b_4 <= 1
 red_ind_13: r_2 + r_5 <= 1
 blue_ind_13: b_2 + b_5 <= 1
 red_ind_14: r_2 + r_7 <= 1
 blue_ind_14: b_2 + b_7 <= 1
 red_ind_15: r_2 + r_8 <= 1
 blue_ind_15: b_2 + b_8 <= 1
 red_ind_16: r_3 + r_4 <= 1
 blue_ind_16: b_3 + b_4 <= 1
 red_ind_17: r_3 + r_5 <= 1
 blue_ind_17: b_3 + b_5 <= 1
 red_ind_18: r_3 + r_6 <= 1
 blue_ind_18: b_3 + b_6 <= 1
 red_ind_19: r_3 + r_7 <= 1
 blue_ind_19: b_3 + b_7 <= 1
 red_ind_20: r_4 + r_5 <= 1
 blue_ind_20: b_4 + b_5 <= 1
 red_ind_21: r_4 + r_7 <= 1
 blue_ind_21: b_4 + b_7 <= 1
 red_ind_22: r_5 + r_7 <= 1
 blue_ind_22: b_5 + b_7 <= 1
 red_ind_23: r_7 + r_8 <= 1
 blue_ind_23: b_7 + b_8 <= 1
 red_ind_24: r_7 + r_15 <= 1
 blue_ind_24: b_7 + b_15 <= 1
 red_ind_25: r_8 + r_10 <= 1
 blue_ind_25: b_8 + b_10 <= 1
 red_ind_26: r_8 + r_14 <= 1
 blue_ind_26: b_8 + b_14 <= 1
 red_ind_27: r_8 + r_15 <= 1
 blue_ind_27: b_8 + b_15 <= 1
 red_ind_28: r_9 + r_15 <= 1
 blue_ind_28: b_9 + b_15 <= 1
 red_ind_29: r_10 + r_14 <= 1
 blue_ind_29: b_10 + b_14 <= 1
 red_ind_30: r_10 + r_15 <= 1
 blue_ind_30: b_10 + b_15 <= 1
 red_ind_31: r_11 + r_12 <= 1
 blue_ind_31: b_11 + b_12 <= 1
 red_ind_32: r_14 + r_15 <= 1
 blue_ind_32: b_14 + b_15 <= 1
 red_dom_0: r_1 +r_2 +r_3 +r_4 +r_5 +r_7 +r_8 +r_0 +b_0 >= 1
 blue_dom_0: b_1 +b_2 +b_3 +b_4 +b_5 +b_7 +b_8 +r_0 +b_0 >= 1
 red_dom_1: r_0 +r_2 +r_3 +r_4 +r_5 +r_1 +b_1 >= 1
 blue_dom_1: b_0 +b_2 +b_3 +b_4 +b_5 +r_1 +b_1 >= 1
 red_dom_2: r_0 +r_1 +r_3 +r_4 +r_5 +r_7 +r_8 +r_2 +b_2 >= 1
 blue_dom_2: b_0 +b_1 +b_3 +b_4 +b_5 +b_7 +b_8 +r_2 +b_2 >= 1
 red_dom_3: r_0 +r_1 +r_2 +r_4 +r_5 +r_6 +r_7 +r_3 +b_3 >= 1
 blue_dom_3: b_0 +b_1 +b_2 +b_4 +b_5 +b_6 +b_7 +r_3 +b_3 >= 1
 red_dom_4: r_0 +r_1 +r_2 +r_3 +r_5 +r_7 +r_4 +b_4 >= 1
 blue_dom_4: b_0 +b_1 +b_2 +b_3 +b_5 +b_7 +r_4 +b_4 >= 1
 red_dom_5: r_0 +r_1 +r_2 +r_3 +r_4 +r_7 +r_5 +b_5 >= 1
 blue_dom_5: b_0 +b_1 +b_2 +b_3 +b_4 +b_7 +r_5 +b_5 >= 1
 red_dom_6: r_3 +r_6 +b_6 >= 1
 blue_dom_6: b_3 +r_6 +b_6 >= 1
 red_dom_7: r_0 +r_2 +r_3 +r_4 +r_5 +r_8 +r_15 +r_7 +b_7 >= 1
 blue_dom_7: b_0 +b_2 +b_3 +b_4 +b_5 +b_8 +b_15 +r_7 +b_7 >= 1
 red_dom_8: r_0 +r_2 +r_7 +r_10 +r_14 +r_15 +r_8 +b_8 >= 1
 blue_dom_8: b_0 +b_2 +b_7 +b_10 +b_14 +b_15 +r_8 +b_8 >= 1
 red_dom_9: r_15 +r_9 +b_9 >= 1
 blue_dom_9: b_15 +r_9 +b_9 >= 1
 red_dom_10: r_8 +r_14 +r_15 +r_10 +b_10 >= 1
 blue_dom_10: b_8 +b_14 +b_15 +r_10 +b_10 >= 1
 red_dom_11: r_12 +r_11 +b_11 >= 1
 blue_dom_11: b_12 +r_11 +b_11 >= 1
 red_dom_12: r_11 +r_12 +b_12 >= 1
 blue_dom_12: b_11 +r_12 +b_12 >= 1
 red_dom_13: r_13 +b_13 >= 1
 blue_dom_13: r_13 +b_13 >= 1
 red_dom_14: r_8 +r_10 +r_15 +r_14 +b_14 >= 1
 blue_dom_14: b_8 +b_10 +b_15 +r_14 +b_14 >= 1
 red_dom_15: r_7 +r_8 +r_9 +r_10 +r_14 +r_15 +b_15 >= 1
 blue_dom_15: b_7 +b_8 +b_9 +b_10 +b_14 +r_15 +b_15 >= 1
 margin_0_0: 10.000000 c_0 - r_0 - b_0 - r_1 - b_1 - r_2 - b_2 - r_3 - b_3 - r_4 - b_4
  - r_5 - b_5 - r_6 - b_6 - r_7 - b_7 - r_8 - b_8 - r_9 - b_9 - r_10 - b_10 - r_11 - b_11
  - r_12 - b_12 - r_13 - b_13 - r_14 - b_14 - r_15 - b_15 <= 9
 margin_1_0: 10.000000 c_1 - r_0 - b_0 - r_1 - b_1 - r_2 - b_2 - r_3 - b_3 - r_4 - b_4
  - r_5 - b_5 - r_6 - b_6 - r_7 - b_7 - r_8 - b_8 - r_9 - b_9 - r_10 - b_10 - r_11 - b_11
  - r_12 - b_12 - r_13 - b_13 - r_14 - b_14 - r_15 - b_15 <= 9
 margin_2_0: 10.000000 c_2 - r_0 - b_0 - r_1 - b_1 - r_2 - b_2 - r_3 - b_3 - r_4 - b_4
  - r_5 - b_5 - r_6 - b_6 - r_7 - b_7 - r_8 - b_8 - r_9 - b_9 - r_10 - b_10 - r_11 - b_11
  - r_12 - b_12 - r_13 - b_13 - r_14 - b_14 - r_15 - b_15 <= 9
 margin_3_0: 10.000000 c_3 - r_0 - b_0 - r_1 - b_1 - r_2 - b_2 - r_3 - b_3 - r_4 - b_4
  - r_5 - b_5 - r_6 - b_6 - r_7 - b_7 - r_8 - b_8 - r_9 - b_9 - r_10 - b_10 - r_11 - b_11
  - r_12 - b_12 - r_13 - b_13 - r_14 - b_14 - r_15 - b_15 <= 9
 margin_4_0: 10.000000 c_4 - r_0 - b_0 - r_1 - b_1 - r_2 - b_2 - r_3 - b_3 - r_4 - b_4
  - r_5 - b_5 - r_6 - b_6 - r_7 - b_7 - r_8 - b_8 - r_9 - b_9 - r_10 - b_10 - r_11 - b_11
  - r_12 - b_12 - r_13 - b_13 - r_14 - b_14 - r_15 - b_15 <= 9
 margin_5_0: 10.000000 c_5 - r_0 - b_0 - r_1 - b_1 - r_2 - b_2 - r_3 - b_3 - r_4 - b_4
  - r_5 - b_5 - r_6 - b_6 - r_7 - b_7 - r_8 - b_8 - r_9 - b_9 - r_10 - b_10 - r_11 - b_11
  - r_12 - b_12 - r_13 - b_13 - r_14 - b_14 - r_15 - b_15 <= 9
 margin_6_0: 10.000000 c_6 - r_0 - b_0 - r_1 - b_1 - r_2 - b_2 - r_3 - b_3 - r_4 - b_4
  - r_5 - b_5 - r_6 - b_6 - r_7 - b_7 - r_8 - b_8 - r_9 - b_9 - r_10 - b_10 - r_11 - b_11
  - r_12 - b_12 - r_13 - b_13 - r_14 - b_14 - r_15 - b_15 <= 9
 margin_7_0: 10.000000 c_7 - r_0 - b_0 - r_1 - b_1 - r_2 - b_2 - r_3 - b_3 - r_4 - b_4
  - r_5 - b_5 + r_6 + b_6 - r_7 - b_7 - r_8 - b_8 - r_9 - b_9 - r_10 - b_10 - r_11 - b_11
  - r_12 - b_12 + r_13 + b_13 - r_14 - b_14 - r_15 - b_15 <= 9
 margin_8_0: 10.000000 c_8 - r_0 - b_0 - r_1 - b_1 - r_2 - b_2 - r_3 - b_3 - r_4 - b_4
  - r_5 - b_5 - r_6 - b_6 - r_7 - b_7 - r_8 - b_8 - r_9 - b_9 - r_10 - b_10 - r_11 - b_11
  - r_12 - b_12 - r_13 - b_13 - r_14 - b_14 - r_15 - b_15 <= 9
 margin_9_0: 10.000000 c_9 + r_0 + b_0 - r_1 - b_1 + r_2 + b_2 - r_3 - b_3 + r_4 + b_4
  + r_5 + b_5 - r_6 - b_6 + r_7 + b_7 + r_8 + b_8 - r_9 - b_9 + r_10 + b_10 + r_11 + b_11
  + r_12 + b_12 + r_13 + b_13 + r_14 + b_14 + r_15 + b_15 <= 9
 margin_10_0: 10.000000 c_10 - r_0 - b_0 - r_1 - b_1 - r_2 - b_2 - r_3 - b_3 - r_4 - b_4
  - r_5 - b_5 - r_6 - b_6 - r_7 - b_7 - r_8 - b_8 - r_9 - b_9 - r_10 - b_10 - r_11 - b_11
  - r_12 - b_12 - r_13 - b_13 - r_14 - b_14 - r_15 - b_15 <= 9
 margin_11_0: 10.000000 c_11 - r_0 - b_0 - r_1 - b_1 - r_2 - b_2 - r_3 - b_3 - r_4 - b_4
  - r_5 - b_5 - r_6 - b_6 - r_7 - b_7 - r_8 - b_8 - r_9 - b_9 - r_10 - b_10 - r_11 - b_11
  - r_12 - b_12 - r_13 - b_13 - r_14 - b_14 - r_15 - b_15 <= 9
 margin_12_0: 10.000000 c_12 - r_0 - b_0 - r_1 - b_1 - r_2 - b_2 - r_3 - b_3 - r_4 - b_4
  - r_5 - b_5 + r_6 + b_6 - r_7 - b_7 - r_8 - b_8 + r_9 + b_9 - r_10 - b_10 - r_11 - b_11
  - r_12 - b_12 - r_13 - b_13 - r_14 - b_14 - r_15 - b_15 <= 9
 margin_13_0: 10.000000 c_13 - r_0 - b_0 - r_1 - b_1 - r_2 - b_2 - r_3 - b_3 - r_4 - b_4
  - r_5 - b_5 - r_6 - b_6 - r_7 - b_7 - r_8 - b_8 - r_9 - b_9 - r_10 - b_10 + r_11 + b_11
  + r_12 + b_12 - r_13 - b_13 - r_14 - b_14 - r_15 - b_15 <= 9
 margin_14_0: 10.000000 c_14 + r_0 + b_0 + r_1 + b_1 + r_2 + b_2 + r_3 + b_3 + r_4 + b_4
  + r_5 + b_5 + r_6 + b_6 + r_7 + b_7 + r_8 + b_8 - r_9 - b_9 - r_10 - b_10 + r_11 + b_11
  + r_12 + b_12 - r_13 - b_13 - r_14 - b_14 + r_15 + b_15 <= 9
 margin_15_0: 10.000000 c_15 - r_0 - b_0 - r_1 - b_1 - r_2 - b_2 - r_3 - b_3 - r_4 - b_4
  - r_5 - b_5 + r_6 + b_6 - r_7 - b_7 - r_8 - b_8 - r_9 - b_9 - r_10 - b_10 + r_11 + b_11
  + r_12 + b_12 - r_13 - b_13 - r_14 - b_14 - r_15 - b_15 <= 9
 margin_16_0: 10.000000 c_16 - r_0 - b_0 - r_1 - b_1 - r_2 - b_2 - r_3 - b_3 - r_4 - b_4
  - r_5 - b_5 - r_6 - b_6 - r_7 - b_7 - r_8 - b_8 - r_9 - b_9 - r_10 - b_10 - r_11 - b_11
  - r_12 - b_12 - r_13 - b_13 - r_14 - b_14 - r_15 - b_15 <= 9
 margin_17_0: 10.000000 c_17 - r_0 - b_0 - r_1 - b_1 - r_2 - b_2 - r_3 - b_3 - r_4 - b_4
  - r_5 - b_5 - r_6 - b_6 - r_7 - b_7 - r_8 - b_8 - r_9 - b_9 - r_10 - b_10 - r_11 - b_11
  - r_12 - b_12 - r_13 - b_13 - r_14 - b_14 - r_15 - b_15 <= 9
 margin_18_0: 10.000000 c_18 - r_0 - b_0 - r_1 - b_1 - r_2 - b_2 - r_3 - b_3 - r_4 - b_4
  - r_5 - b_5 - r_6 - b_6 - r_7 - b_7 - r_8 - b_8 - r_9 - b_9 - r_10 - b_10 - r_11 - b_11
  - r_12 - b_12 - r_13 - b_13 - r_14 - b_14 - r_15 - b_15 <= 9
 margin_19_0: 10.000000 c_19 - r_0 - b_0 - r_1 - b_1 - r_2 - b_2 - r_3 - b_3 - r_4 - b_4
  - r_5 - b_5 - r_6 - b_6 - r_7 - b_7 - r_8 - b_8 - r_9 - b_9 - r_10 - b_10 - r_11 - b_11
  - r_12 - b_12 - r_13 - b_13 - r_14 - b_14 - r_15 - b_15 <= 9
 margin_20_0: 10.000000 c_20 - r_0 - b_0 - r_1 - b_1 - r_2 - b_2 - r_3 - b_3 - r_4 - b_4
  - r_5 - b_5 - r_6 - b_6 - r_7 - b_7 - r_8 - b_8 - r_9 - b_9 - r_10 - b_10 - r_11 - b_11
  - r_12 - b_12 - r_13 - b_13 - r_14 - b_14 - r_15 - b_15 <= 9
 margin_21_0: 10.000000 c_21 - r_0 - b_0 - r_1 - b_1 - r_2 - b_2 - r_3 - b_3 - r_4 - b_4
  - r_5 - b_5 - r_6 - b_6 - r_7 - b_7 - r_8 - b_8 - r_9 - b_9 - r_10 - b_10 - r_11 - b_11
  - r_12 - b_12 - r_13 - b_13 - r_14 - b_14 - r_15 - b_15 <= 9
 margin_22_0: 10.000000 c_22 - r_0 - b_0 - r_1 - b_1 - r_2 - b_2 - r_3 - b_3 - r_4 - b_4
  - r_5 - b_5 - r_6 - b_6 - r_7 - b_7 - r_8 - b_8 - r_9 - b_9 - r_10 - b_10 - r_11 - b_11
  - r_12 - b_12 - r_13 - b_13 - r_14 - b_14 - r_15 - b_15 <= 9
 margin_23_0: 10.000000 c_23 - r_0 - b_0 - r_1 - b_1 - r_2 - b_2 - r_3 - b_3 - r_4 - b_4
  - r_5 - b_5 - r_6 - b_6 - r_7 - b_7 - r_8 - b_8 - r_9 - b_9 - r_10 - b_10 - r_11 - b_11
  - r_12 - b_12 - r_13 - b_13 - r_14 - b_14 - r_15 - b_15 <= 9
 margin_24_0: 10.000000 c_24 - r_0 - b_0 - r_1 - b_1 - r_2 - b_2 - r_3 - b_3 - r_4 - b_4
  - r_5 - b_5 - r_6 - b_6 - r_7 - b_7 - r_8 - b_8 + r_9 + b_9 - r_10 - b_10 - r_11 - b_11
  - r_12 - b_12 - r_13 - b_13 - r_14 - b_14 - r_15 - b_15 <= 9
 margin_25_0: 10.000000 c_25 - r_0 - b_0 - r_1 - b_1 - r_2 - b_2 - r_3 - b_3 - r_4 - b_4
  - r_5 - b_5 - r_6 - b_6 - r_7 - b_7 - r_8 - b_8 - r_9 - b_9 - r_10 - b_10 - r_11 - b_11
  - r_12 - b_12 - r_13 - b_13 - r_14 - b_14 - r_15 - b_15 <= 9
 margin_26_0: 10.000000 c_26 - r_0 - b_0 - r_1 - b_1 - r_2 - b_2 - r_3 - b_3 - r_4 - b_4
  - r_5 - b_5 - r_6 - b_6 - r_7 - b_7 - r_8 - b_8 - r_9 - b_9 - r_10 - b_10 + r_11 + b_11
  + r_12 + b_12 - r_13 - b_13 - r_14 - b_14 - r_15 - b_15 <= 9
 margin_27_0: 10.000000 c_27 - r_0 - b_0 - r_1 - b_1 - r_2 - b_2 - r_3 - b_3 - r_4 - b_4
  - r_5 - b_5 - r_6 - b_6 - r_7 - b_7 - r_8 - b_8 - r_9 - b_9 - r_10 - b_10 - r_11 - b_11
  - r_12 - b_12 - r_13 - b_13 - r_14 - b_14 - r_15 - b_15 <= 9
 margin_28_0: 10.000000 c_28 - r_0 - b_0 - r_1 - b_1 - r_2 - b_2 - r_3 - b_3 - r_4 - b_4
  - r_5 - b_5 - r_6 - b_6 - r_7 - b_7 - r_8 - b_8 - r_9 - b_9 - r_10 - b_10 - r_11 - b_11
  - r_12 - b_12 - r_13 - b_13 - r_14 - b_14 - r_15 - b_15 <= 9
 margin_29_0: 10.000000 c_29 - r_0 - b_0 - r_1 - b_1 - r_2 - b_2 + r_3 + b_3 - r_4 - b_4
  - r_5 - b_5 + r_6 + b_6 - r_7 - b_7 - r_8 - b_8 - r_9 - b_9 - r_10 - b_10 - r_11 - b_11
  - r_12 - b_12 + r_13 + b_13 - r_14 - b_14 - r_15 - b_15 <= 9
 margin_30_0: 10.000000 c_30 - r_0 - b_0 - r_1 - b_1 - r_2 - b_2 - r_3 - b_3 - r_4 - b_4
  - r_5 - b_5 - r_6 - b_6 - r_7 - b_7 + r_8 + b_8 + r_9 + b_9 + r_10 + b_10 - r_11 - b_11
  - r_12 - b_12 - r_13 - b_13 + r_14 + b_14 + r_15 + b_15 <= 9
 margin_31_0: 10.000000 c_31 - r_0 - b_0 - r_1 - b_1 - r_2 - b_2 - r_3 - b_3 - r_4 - b_4
  - r_5 - b_5 - r_6 - b_6 - r_7 - b_7 - r_8 - b_8 - r_9 - b_9 - r_10 - b_10 - r_11 - b_11
  - r_12 - b_12 - r_13 - b_13 - r_14 - b_14 - r_15 - b_15 <= 9
 margin_32_0: 10.000000 c_32 - r_0 - b_0 - r_1 - b_1 - r_2 - b_2 - r_3 - b_3 - r_4 - b_4
  - r_5 - b_5 - r_6 - b_6 - r_7 - b_7 - r_8 - b_8 - r_9 - b_9 - r_10 - b_10 - r_11 - b_11
  - r_12 - b_12 - r_13 - b_13 - r_14 - b_14 - r_15 - b_15 <= 9
 margin_33_0: 10.000000 c_33 - r_0 - b_0 - r_1 - b_1 - r_2 - b_2 - r_3 - b_3 - r_4 - b_4
  - r_5 - b_5 - r_6 - b_6 - r_7 - b_7 - r_8 - b_8 - r_9 - b_9 - r_10 - b_10 - r_11 - b_11
  - r_12 - b_12 - r_13 - b_13 - r_14 - b_14 - r_15 - b_15 <= 9
 margin_34_0: 10.000000 c_34 - r_0 - b_0 - r_1 - b_1 - r_2 - b_2 - r_3 - b_3 - r_4 - b_4
  - r_5 - b_5 - r_6 - b_6 - r_7 - b_7 - r_8 - b_8 - r_9 - b_9 - r_10 - b_10 - r_11 - b_11
  - r_12 - b_12 - r_13 - b_13 - r_14 - b_14 - r_15 - b_15 <= 9
 margin_35_0: 10.000000 c_35 - r_0 - b_0 - r_1 - b_1 - r_2 - b_2 - r_3 - b_3 - r_4 - b_4
  - r_5 - b_5 - r_6 - b_6 - r_7 - b_7 - r_8 - b_8 - r_9 - b_9 - r_10 - b_10 - r_11 - b_11
  - r_12 - b_12 - r_13 - b_13 - r_14 - b_14 - r_15 - b_15 <= 9
 margin_36_0: 10.000000 c_36 - r_0 - b_0 - r_1 - b_1 - r_2 - b_2 - r_3 - b_3 - r_4 - b_4
  - r_5 - b_5 - r_6 - b_6 - r_7 - b_7 - r_8 - b_8 - r_9 - b_9 - r_10 - b_10 - r_11 - b_11
  - r_12 - b_12 - r_13 - b_13 - r_14 - b_14 - r_15 - b_15 <= 9
 margin_37_0: 10.000000 c_37 - r_0 - b_0 - r_1 - b_1 - r_2 - b_2 - r_3 - b_3 - r_4 - b_4
  - r_5 - b_5 - r_6 - b_6 - r_7 - b_7 - r_8 - b_8 - r_9 - b_9 - r_10 - b_10 - r_11 - b_11
  - r_12 - b_12 - r_13 - b_13 - r_14 - b_14 - r_15 - b_15 <= 9
 margin_38_0: 10.000000 c_38 - r_0 - b_0 - r_1 - b_1 - r_2 - b_2 - r_3 - b_3 - r_4 - b_4
  - r_5 - b_5 - r_6 - b_6 - r_7 - b_7 - r_8 - b_8 - r_9 - b_9 - r_10 - b_10 - r_11 - b_11
  - r_12 - b_12 - r_13 - b_13 - r_14 - b_14 - r_15 - b_15 <= 9
 margin_39_0: 10.000000 c_39 - r_0 - b_0 - r_1 - b_1 - r_2 - b_2 - r_3 - b_3 - r_4 - b_4
  - r_5 - b_5 - r_6 - b_6 - r_7 - b_7 - r_8 - b_8 - r_9 - b_9 - r_10 - b_10 + r_11 + b_11
  + r_12 + b_12 - r_13 - b_13 - r_14 - b_14 - r_15 - b_15 <= 9
 margin_40_0: 10.000000 c_40 - r_0 - b_0 - r_1 - b_1 - r_2 - b_2 - r_3 - b_3 - r_4 - b_4
  - r_5 - b_5 - r_6 - b_6 - r_7 - b_7 - r_8 - b_8 - r_9 - b_9 - r_10 - b_10 - r_11 - b_11
  - r_12 - b_12 - r_13 - b_13 - r_14 - b_14 - r_15 - b_15 <= 9
 margin_41_0: 10.000000 c_41 - r_0 - b_0 - r_1 - b_1 - r_2 - b_2 - r_3 - b_3 - r_4 - b_4
  - r_5 - b_5 - r_6 - b_6 - r_7 - b_7 - r_8 - b_8 - r_9 - b_9 - r_10 - b_10 - r_11 - b_11
  - r_12 - b_12 - r_13 - b_13 - r_14 - b_14 - r_15 - b_15 <= 9
 margin_42_0: 10.000000 c_42 - r_0 - b_0 - r_1 - b_1 - r_2 - b_2 - r_3 - b_3 - r_4 - b_4
  - r_5 - b_5 - r_6 - b_6 - r_7 - b_7 - r_8 - b_8 - r_9 - b_9 - r_10 - b_10 - r_11 - b_11
  - r_12 - b_12 - r_13 - b_13 - r_14 - b_14 - r_15 - b_15 <= 9
 margin_43_0: 10.000000 c_43 - r_0 - b_0 - r_1 - b_1 - r_2 - b_2 - r_3 - b_3 - r_4 - b_4
  - r_5 - b_5 - r_6 - b_6 - r_7 - b_7 - r_8 - b_8 - r_9 - b_9 - r_10 - b_10 - r_11 - b_11
  - r_12 - b_12 - r_13 - b_13 - r_14 - b_14 - r_15 - b_15 <= 9
 margin_44_0: 10.000000 c_44 - r_0 - b_0 - r_1 - b_1 - r_2 - b_2 - r_3 - b_3 - r_4 - b_4
  - r_5 - b_5 - r_6 - b_6 - r_7 - b_7 - r_8 - b_8 + r_9 + b_9 - r_10 - b_10 - r_11 - b_11
  - r_12 - b_12 + r_13 + b_13 - r_14 - b_14 - r_15 - b_15 <= 9
 margin_45_0: 10.000000 c_45 - r_0 - b_0 - r_1 - b_1 - r_2 - b_2 - r_3 - b_3 - r_4 - b_4
  - r_5 - b_5 - r_6 - b_6 - r_7 - b_7 - r_8 - b_8 - r_9 - b_9 - r_10 - b_10 - r_11 - b_11
  - r_12 - b_12 - r_13 - b_13 - r_14 - b_14 - r_15 - b_15 <= 9
 margin_46_0: 10.000000 c_46 - r_0 - b_0 - r_1 - b_1 - r_2 - b_2 - r_3 - b_3 - r_4 - b_4
  - r_5 - b_5 - r_6 - b_6 - r_7 - b_7 + r_8 + b_8 + r_9 + b_9 + r_10 + b_10 - r_11 - b_11
  - r_12 - b_12 - r_13 - b_13 + r_14 + b_14 + r_15 + b_15 <= 9
 margin_47_0: 10.000000 c_47 - r_0 - b_0 - r_1 - b_1 - r_2 - b_2 - r_3 - b_3 - r_4 - b_4
  - r_5 - b_5 - r_6 - b_6 - r_7 - b_7 - r_8 - b_8 - r_9 - b_9 + r_10 + b_10 + r_11 + b_11
  + r_12 + b_12 - r_13 - b_13 + r_14 + b_14 - r_15 - b_15 <= 9
 margin_48_0: 10.000000 c_48 - r_0 - b_0 - r_1 - b_1 - r_2 - b_2 - r_3 - b_3 - r_4 - b_4
  - r_5 - b_5 - r_6 - b_6 - r_7 - b_7 - r_8 - b_8 - r_9 - b_9 - r_10 - b_10 - r_11 - b_11
  - r_12 - b_12 - r_13 - b_13 - r_14 - b_14 - r_15 - b_15 <= 9
 margin_49_0: 10.000000 c_49 - r_0 - b_0 - r_1 - b_1 - r_2 - b_2 - r_3 - b_3 - r_4 - b_4
  - r_5 - b_5 - r_6 - b_6 - r_7 - b_7 - r_8 - b_8 - r_9 - b_9 - r_10 - b_10 - r_11 - b_11
  - r_12 - b_12 - r_13 - b_13 - r_14 - b_14 - r_15 - b_15 <= 9
 margin_50_0: 10.000000 c_50 - r_0 - b_0 - r_1 - b_1 - r_2 - b_2 - r_3 - b_3 - r_4 - b_4
  - r_5 - b_5 - r_6 - b_6 - r_7 - b_7 - r_8 - b_8 - r_9 - b_9 - r_10 - b_10 - r_11 - b_11
  - r_12 - b_12 - r_13 - b_13 - r_14 - b_14 - r_15 - b_15 <= 9
 margin_51_0: 10.000000 c_51 - r_0 - b_0 - r_1 - b_1 - r_2 - b_2 - r_3 - b_3 - r_4 - b_4
  - r_5 - b_5 - r_6 - b_6 - r_7 - b_7 - r_8 - b_8 - r_9 - b_9 + r_10 + b_10 - r_11 - b_11
  - r_12 - b_12 - r_13 - b_13 + r_14 + b_14 - r_15 - b_15 <= 9
 margin_52_0: 10.000000 c_52 - r_0 - b_0 - r_1 - b_1 - r_2 - b_2 - r_3 - b_3 - r_4 - b_4
  - r_5 - b_5 - r_6 - b_6 - r_7 - b_7 - r_8 - b_8 - r_9 - b_9 - r_10 - b_10 - r_11 - b_11
  - r_12 - b_12 - r_13 - b_13 - r_14 - b_14 - r_15 - b_15 <= 9
 margin_53_0: 10.000000 c_53 - r_0 - b_0 - r_1 - b_1 - r_2 - b_2 - r_3 - b_3 - r_4 - b_4
  - r_5 - b_5 - r_6 - b_6 - r_7 - b_7 - r_8 - b_8 - r_9 - b_9 - r_10 - b_10 - r_11 - b_11
  - r_12 - b_12 - r_13 - b_13 - r_14 - b_14 - r_15 - b_15 <= 9
 margin_54_0: 10.000000 c_54 - r_0 - b_0 - r_1 - b_1 - r_2 - b_2 - r_3 - b_3 - r_4 - b_4
  - r_5 - b_5 - r_6 - b_6 - r_7 - b_7 - r_8 - b_8 - r_9 - b_9 - r_10 - b_10 - r_11 - b_11
  - r_12 - b_12 - r_13 - b_13 - r_14 - b_14 - r_15 - b_15 <= 9
 margin_55_0: 10.000000 c_55 - r_0 - b_0 - r_1 - b_1 - r_2 - b_2 - r_3 - b_3 - r_4 - b_4
  - r_5 - b_5 - r_6 - b_6 - r_7 - b_7 - r_8 - b_8 - r_9 - b_9 - r_10 - b_10 + r_11 + b_11
  + r_12 + b_12 - r_13 - b_13 - r_14 - b_14 - r_15 - b_15 <= 9
 margin_56_0: 10.000000 c_56 - r_0 - b_0 - r_1 - b_1 - r_2 - b_2 - r_3 - b_3 - r_4 - b_4
  - r_5 - b_5 - r_6 - b_6 - r_7 - b_7 - r_8 - b_8 - r_9 - b_9 - r_10 - b_10 - r_11 - b_11
  - r_12 - b_12 - r_13 - b_13 - r_14 - b_14 - r_15 - b_15 <= 9
 margin_57_0: 10.000000 c_57 - r_0 - b_0 - r_1 - b_1 - r_2 - b_2 - r_3 - b_3 - r_4 - b_4
  - r_5 - b_5 - r_6 - b_6 - r_7 - b_7 - r_8 - b_8 - r_9 - b_9 - r_10 - b_10 - r_11 - b_11
  - r_12 - b_12 - r_13 - b_13 - r_14 - b_14 - r_15 - b_15 <= 9
 margin_58_0: 10.000000 c_58 - r_0 - b_0 - r_1 - b_1 - r_2 - b_2 - r_3 - b_3 - r_4 - b_4
  - r_5 - b_5 - r_6 - b_6 - r_7 - b_7 - r_8 - b_8 - r_9 - b_9 - r_10 - b_10 + r_11 + b_11
  + r_12 + b_12 - r_13 - b_13 - r_14 - b_14 - r_15 - b_15 <= 9
 margin_59_0: 10.000000 c_59 - r_0 - b_0 - r_1 - b_1 - r_2 - b_2 - r_3 - b_3 - r_4 - b_4
  - r_5 - b_5 - r_6 - b_6 - r_7 - b_7 - r_8 - b_8 - r_9 - b_9 - r_10 - b_10 - r_11 - b_11
  - r_12 - b_12 - r_13 - b_13 - r_14 - b_14 - r_15 - b_15 <= 9
 margin_60_0: 10.000000 c_60 - r_0 - b_0 - r_1 - b_1 - r_2 - b_2 - r_3 - b_3 - r_4 - b_4
  - r_5 - b_5 - r_6 - b_6 - r_7 - b_7 - r_8 - b_8 - r_9 - b_9 - r_10 - b_10 - r_11 - b_11
  - r_12 - b_12 - r_13 - b_13 - r_14 - b_14 - r_15 - b_15 <= 9
 margin_61_0: 10.000000 c_61 - r_0 - b_0 - r_1 - b_1 - r_2 - b_2 - r_3 - b_3 - r_4 - b_4
  - r_5 - b_5 - r_6 - b_6 - r_7 - b_7 - r_8 - b_8 - r_9 - b_9 - r_10 - b_10 - r_11 - b_11
  - r_12 - b_12 - r_13 - b_13 - r_14 - b_14 - r_15 - b_15 <= 9
 margin_62_0: 10.000000 c_62 - r_0 - b_0 - r_1 - b_1 - r_2 - b_2 - r_3 - b_3 - r_4 - b_4
  - r_5 - b_5 - r_6 - b_6 + r_7 + b_7 - r_8 - b_8 - r_9 - b_9 - r_10 - b_10 + r_11 + b_11
  + r_12 + b_12 - r_13 - b_13 - r_14 - b_14 - r_15 - b_15 <= 9
 margin_63_0: 10.000000 c_63 - r_0 - b_0 - r_1 - b_1 - r_2 - b_2 - r_3 - b_3 - r_4 - b_4
  - r_5 - b_5 - r_6 - b_6 - r_7 - b_7 - r_8 - b_8 - r_9 - b_9 - r_10 - b_10 - r_11 - b_11
  - r_12 - b_12 - r_13 - b_13 - r_14 - b_14 - r_15 - b_15 <= 9
 margin_64_0: 10.000000 c_64 - r_0 - b_0 - r_1 - b_1 - r_2 - b_2 - r_3 - b_3 - r_4 - b_4
  - r_5 - b_5 - r_6 - b_6 - r_7 - b_7 - r_8 - b_8 - r_9 - b_9 - r_10 - b_10 - r_11 - b_11
  - r_12 - b_12 - r_13 - b_13 - r_14 - b_14 - r_15 - b_15 <= 9
 margin_65_0: 10.000000 c_65 - r_0 - b_0 - r_1 - b_1 - r_2 - b_2 - r_3 - b_3 - r_4 - b_4
  - r_5 - b_5 - r_6 - b_6 - r_7 - b_7 - r_8 - b_8 - r_9 - b_9 - r_10 - b_10 - r_11 - b_11
  - r_12 - b_12 - r_13 - b_13 - r_14 - b_14 - r_15 - b_15 <= 9
 margin_66_0: 10.000000 c_66 - r_0 - b_0 - r_1 - b_1 - r_2 - b_2 - r_3 - b_3 - r_4 - b_4
  - r_5 - b_5 - r_6 - b_6 - r_7 - b_7 - r_8 - b_8 - r_9 - b_9 - r_10 - b_10 - r_11 - b_11
  - r_12 - b_12 - r_13 - b_13 - r_14 - b_14 - r_15 - b_15 <= 9
 margin_67_0: 10.000000 c_67 + r_0 + b_0 + r_1 + b_1 + r_2 + b_2 + r_3 + b_3 + r_4 + b_4
  + r_5 + b_5 + r_6 + b_6 + r_7 + b_7 + r_8 + b_8 - r_9 - b_9 - r_10 - b_10 + r_11 + b_11
  + r_12 + b_12 + r_13 + b_13 - r_14 - b_14 + r_15 + b_15 <= 9
 margin_68_0: 10.000000 c_68 - r_0 - b_0 - r_1 - b_1 - r_2 - b_2 + r_3 + b_3 - r_4 - b_4
  - r_5 - b_5 - r_6 - b_6 + r_7 + b_7 - r_8 - b_8 - r_9 - b_9 - r_10 - b_10 + r_11 + b_11
  + r_12 + b_12 - r_13 - b_13 - r_14 - b_14 - r_15 - b_15 <= 9
 margin_69_0: 10.000000 c_69 - r_0 - b_0 - r_1 - b_1 - r_2 - b_2 - r_3 - b_3 - r_4 - b_4
  - r_5 - b_5 - r_6 - b_6 - r_7 - b_7 - r_8 - b_8 - r_9 - b_9 - r_10 - b_10 - r_11 - b_11
  - r_12 - b_12 - r_13 - b_13 - r_14 - b_14 - r_15 - b_15 <= 9
 margin_70_0: 10.000000 c_70 - r_0 - b_0 - r_1 - b_1 - r_2 - b_2 - r_3 - b_3 - r_4 - b_4
  + r_5 + b_5 - r_6 - b_6 - r_7 - b_7 - r_8 - b_8 - r_9 - b_9 - r_10 - b_10 + r_11 + b_11
  + r_12 + b_12 - r_13 - b_13 - r_14 - b_14 - r_15 - b_15 <= 9
 margin_71_0: 10.000000 c_71 - r_0 - b_0 - r_1 - b_1 - r_2 - b_2 - r_3 - b_3 - r_4 - b_4
  - r_5 - b_5 + r_6 + b_6 - r_7 - b_7 - r_8 - b_8 - r_9 - b_9 - r_10 - b_10 - r_11 - b_11
  - r_12 - b_12 - r_13 - b_13 - r_14 - b_14 - r_15 - b_15 <= 9
 margin_72_0: 10.000000 c_72 - r_0 - b_0 - r_1 - b_1 - r_2 - b_2 - r_3 - b_3 - r_4 - b_4
  - r_5 - b_5 - r_6 - b_6 - r_7 - b_7 - r_8 - b_8 - r_9 - b_9 - r_10 - b_10 - r_11 - b_11
  - r_12 - b_12 - r_13 - b_13 - r_14 - b_14 - r_15 - b_15 <= 9
 margin_73_0: 10.000000 c_73 - r_0 - b_0 - r_1 - b_1 - r_2 - b_2 - r_3 - b_3 - r_4 - b_4
  - r_5 - b_5 - r_6 - b_6 - r_7 - b_7 - r_8 - b_8 - r_9 - b_9 - r_10 - b_10 - r_11 - b_11
  - r_12 - b_12 - r_13 - b_13 - r_14 - b_14 - r_15 - b_15 <= 9
 margin_74_0: 10.000000 c_74 - r_0 - b_0 - r_1 - b_1 - r_2 - b_2 - r_3 - b_3 - r_4 - b_4
  - r_5 - b_5 - r_6 - b_6 - r_7 - b_7 - r_8 - b_8 - r_9 - b_9 - r_10 - b_10 - r_11 - b_11
  - r_12 - b_12 - r_13 - b_13 - r_14 - b_14 - r_15 - b_15 <= 9
 margin_75_0: 10.000000 c_75 - r_0 - b_0 - r_1 - b_1 - r_2 - b_2 - r_3 - b_3 - r_4 - b_4
  - r_5 - b_5 - r_6 - b_6 + r_7 + b_7 - r_8 - b_8 + r_9 + b_9 - r_10 - b_10 - r_11 - b_11
  - r_12 - b_12 + r_13 + b_13 - r_14 - b_14 + r_15 + b_15 <= 9
 margin_76_0: 10.000000 c_76 - r_0 - b_0 - r_1 - b_1 - r_2 - b_2 - r_3 - b_3 - r_4 - b_4
  - r_5 - b_5 - r_6 - b_6 - r_7 - b_7 - r_8 - b_8 - r_9 - b_9 - r_10 - b_10 - r_11 - b_11
  - r_12 - b_12 - r_13 - b_13 - r_14 - b_14 - r_15 - b_15 <= 9
 margin_77_0: 10.000000 c_77 - r_0 - b_0 - r_1 - b_1 - r_2 - b_2 - r_3 - b_3 - r_4 - b_4
  - r_5 - b_5 - r_6 - b_6 - r_7 - b_7 - r_8 - b_8 - r_9 - b_9 - r_10 - b_10 - r_11 - b_11
  - r_12 - b_12 - r_13 - b_13 - r_14 - b_14 - r_15 - b_15 <= 9
 margin_78_0: 10.000000 c_78 - r_0 - b_0 - r_1 - b_1 - r_2 - b_2 - r_3 - b_3 - r_4 - b_4
  - r_5 - b_5 - r_6 - b_6 - r_7 - b_7 - r_8 - b_8 - r_9 - b_9 - r_10 - b_10 - r_11 - b_11
  - r_12 - b_12 - r_13 - b_13 - r_14 - b_14 - r_15 - b_15 <= 9
 margin_79_0: 10.000000 c_79 - r_0 - b_0 - r_1 - b_1 - r_2 - b_2 - r_3 - b_3 - r_4 - b_4
  - r_5 - b_5 - r_6 - b_6 - r_7 - b_7 - r_8 - b_8 - r_9 - b_9 - r_10 - b_10 - r_11 - b_11
  - r_12 - b_12 - r_13 - b_13 - r_14 - b_14 - r_15 - b_15 <= 9
 margin_80_0: 10.000000 c_80 - r_0 - b_0 - r_1 - b_1 - r_2 - b_2 - r_3 - b_3 - r_4 - b_4
  - r_5 - b_5 + r_6 + b_6 - r_7 - b_7 - r_8 - b_8 - r_9 - b_9 - r_10 - b_10 - r_11 - b_11
  - r_12 - b_12 + r_13 + b_13 - r_14 - b_14 - r_15 - b_15 <= 9
 margin_81_0: 10.000000 c_81 - r_0 - b_0 - r_1 - b_1 - r_2 - b_2 - r_3 - b_3 - r_4 - b_4
  - r_5 - b_5 - r_6 - b_6 - r_7 - b_7 - r_8 - b_8 + r_9 + b_9 - r_10 - b_10 - r_11 - b_11
  - r_12 - b_12 - r_13 - b_13 - r_14 - b_14 - r_15 - b_15 <= 9
 margin_82_0: 10.000000 c_82 - r_0 - b_0 - r_1 - b_1 - r_2 - b_2 - r_3 - b_3 - r_4 - b_4
  - r_5 - b_5 - r_6 - b_6 - r_7 - b_7 - r_8 - b_8 - r_9 - b_9 - r_10 - b_10 - r_11 - b_11
  - r_12 - b_12 - r_13 - b_13 - r_14 - b_14 - r_15 - b_15 <= 9
 margin_83_0: 10.000000 c_83 - r_0 - b_0 - r_1 - b_1 - r_2 - b_2 - r_3 - b_3 - r_4 - b_4
  - r_5 - b_5 - r_6 - b_6 - r_7 - b_7 - r_8 - b_8 - r_9 - b_9 - r_10 - b_10 - r_11 - b_11
  - r_12 - b_12 - r_13 - b_13 - r_14 - b_14 - r_15 - b_15 <= 9
 margin_84_0: 10.000000 c_84 - r_0 - b_0 - r_1 - b_1 - r_2 - b_2 - r_3 - b_3 - r_4 - b_4
  - r_5 - b_5 - r_6 - b_6 - r_7 - b_7 - r_8 - b_8 - r_9 - b_9 - r_10 - b_10 - r_11 - b_11
  - r_12 - b_12 - r_13 - b_13 - r_14 - b_14 - r_15 - b_15 <= 9
 margin_85_0: 10.000000 c_85 - r_0 - b_0 - r_1 - b_1 - r_2 - b_2 - r_3 - b_3 - r_4 - b_4
  - r_5 - b_5 - r_6 - b_6 - r_7 - b_7 - r_8 - b_8 - r_9 - b_9 - r_10 - b_10 - r_11 - b_11
  - r_12 - b_12 - r_13 - b_13 - r_14 - b_14 - r_15 - b_15 <= 9
 margin_86_0: 10.000000 c_86 - r_0 - b_0 - r_1 - b_1 - r_2 - b_2 - r_3 - b_3 - r_4 - b_4
  - r_5 - b_5 - r_6 - b_6 - r_7 - b_7 - r_8 - b_8 - r_9 - b_9 - r_10 - b_10 - r_11 - b_11
  - r_12 - b_12 - r_13 - b_13 - r_14 - b_14 - r_15 - b_15 <= 9
 margin_87_0: 10.000000 c_87 - r_0 - b_0 - r_1 - b_1 - r_2 - b_2 - r_3 - b_3 - r_4 - b_4
  - r_5 - b_5 - r_6 - b_6 - r_7 - b_7 - r_8 - b_8 - r_9 - b_9 - r_10 - b_10 - r_11 - b_11
  - r_12 - b_12 - r_13 - b_13 - r_14 - b_14 - r_15 - b_15 <= 9
 margin_88_0: 10.000000 c_88 - r_0 - b_0 - r_1 - b_1 - r_2 - b_2 - r_3 - b_3 - r_4 - b_4
  - r_5 - b_5 - r_6 - b_6 - r_7 - b_7 - r_8 - b_8 - r_9 - b_9 - r_10 - b_10 - r_11 - b_11
  - r_12 - b_12 - r_13 - b_13 - r_14 - b_14 - r_15 - b_15 <= 9
 margin_89_0: 10.000000 c_89 - r_0 - b_0 - r_1 - b_1 - r_2 - b_2 - r_3 - b_3 - r_4 - b_4
  - r_5 - b_5 - r_6 - b_6 - r_7 - b_7 - r_8 - b_8 - r_9 - b_9 - r_10 - b_10 - r_11 - b_11
  - r_12 - b_12 - r_13 - b_13 - r_14 - b_14 - r_15 - b_15 <= 9
 margin_90_0: 10.000000 c_90 - r_0 - b_0 - r_1 - b_1 - r_2 - b_2 - r_3 - b_3 - r_4 - b_4
  - r_5 - b_5 - r_6 - b_6 - r_7 - b_7 - r_8 - b_8 - r_9 - b_9 + r_10 + b_10 - r_11 - b_11
  - r_12 - b_12 - r_13 - b_13 + r_14 + b_14 - r_15 - b_15 <= 9
 margin_91_0: 10.000000 c_91 - r_0 - b_0 - r_1 - b_1 - r_2 - b_2 - r_3 - b_3 - r_4 - b_4
  - r_5 - b_5 - r_6 - b_6 + r_7 + b_7 + r_8 + b_8 + r_9 + b_9 + r_10 + b_10 - r_11 - b_11
  - r_12 - b_12 + r_13 + b_13 + r_14 + b_14 + r_15 + b_15 <= 9
 margin_92_0: 10.000000 c_92 - r_0 - b_0 - r_1 - b_1 - r_2 - b_2 - r_3 - b_3 - r_4 - b_4
  + r_5 + b_5 + r_6 + b_6 + r_7 + b_7 + r_8 + b_8 + r_9 + b_9 + r_10 + b_10 - r_11 - b_11
  - r_12 - b_12 + r_13 + b_13 + r_14 + b_14 + r_15 + b_15 <= 9
 margin_93_0: 10.000000 c_93 - r_0 - b_0 - r_1 - b_1 - r_2 - b_2 - r_3 - b_3 - r_4 - b_4
  - r_5 - b_5 - r_6 - b_6 - r_7 - b_7 - r_8 - b_8 - r_9 - b_9 - r_10 - b_10 - r_11 - b_11
  - r_12 - b_12 - r_13 - b_13 - r_14 - b_14 - r_15 - b_15 <= 9
 margin_94_0: 10.000000 c_94 - r_0 - b_0 - r_1 - b_1 - r_2 - b_2 - r_3 - b_3 - r_4 - b_4
  - r_5 - b_5 - r_6 - b_6 - r_7 - b_7 - r_8 - b_8 - r_9 - b_9 - r_10 - b_10 - r_11 - b_11
  - r_12 - b_12 - r_13 - b_13 - r_14 - b_14 - r_15 - b_15 <= 9
 margin_95_0: 10.000000 c_95 - r_0 - b_0 - r_1 - b_1 - r_2 - b_2 - r_3 - b_3 - r_4 - b_4
  - r_5 - b_5 - r_6 - b_6 - r_7 - b_7 - r_8 - b_8 - r_9 - b_9 - r_10 - b_10 - r_11 - b_11
  - r_12 - b_12 - r_13 - b_13 - r_14 - b_14 - r_15 - b_15 <= 9
 margin_96_0: 10.000000 c_96 - r_0 - b_0 - r_1 - b_1 - r_2 - b_2 - r_3 - b_3 - r_4 - b_4
  - r_5 - b_5 - r_6 - b_6 - r_7 - b_7 - r_8 - b_8 - r_9 - b_9 - r_10 - b_10 - r_11 - b_11
  - r_12 - b_12 - r_13 - b_13 - r_14 - b_14 - r_15 - b_15 <= 9
 margin_97_0: 10.000000 c_97 - r_0 - b_0 - r_1 - b_1 - r_2 - b_2 - r_3 - b_3 - r_4 - b_4
  - r_5 - b_5 - r_6 - b_6 - r_7 - b_7 - r_8 - b_8 - r_9 - b_9 - r_10 - b_10 - r_11 - b_11
  - r_12 - b_12 - r_13 - b_13 - r_14 - b_14 - r_15 - b_15 <= 9
 margin_98_0: 10.000000 c_98 - r_0 - b_0 + r_1 + b_1 - r_2 - b_2 - r_3 - b_3 + r_4 + b_4
  + r_5 + b_5 - r_6 - b_6 - r_7 - b_7 - r_8 - b_8 + r_9 + b_9 + r_10 + b_10 - r_11 - b_11
  - r_12 - b_12 - r_13 - b_13 + r_14 + b_14 + r_15 + b_15 <= 9
 margin_99_0: 10.000000 c_99 - r_0 - b_0 - r_1 - b_1 - r_2 - b_2 - r_3 - b_3 - r_4 - b_4
  - r_5 - b_5 - r_6 - b_6 - r_7 - b_7 - r_8 - b_8 - r_9 - b_9 - r_10 - b_10 - r_11 - b_11
  - r_12 - b_12 - r_13 - b_13 - r_14 - b_14 - r_15 - b_15 <= 9
 margin_100_0: 10.000000 c_100 - r_0 - b_0 - r_1 - b_1 - r_2 - b_2 - r_3 - b_3 - r_4 - b_4
  - r_5 - b_5 - r_6 - b_6 - r_7 - b_7 - r_8 - b_8 - r_9 - b_9 - r_10 - b_10 - r_11 - b_11
  - r_12 - b_12 - r_13 - b_13 - r_14 - b_14 - r_15 - b_15 <= 9
 margin_101_0: 10.000000 c_101 - r_0 - b_0 - r_1 - b_1 - r_2 - b_2 - r_3 - b_3 - r_4 - b_4
  - r_5 - b_5 - r_6 - b_6 - r_7 - b_7 - r_8 - b_8 - r_9 - b_9 - r_10 - b_10 - r_11 - b_11
  - r_12 - b_12 - r_13 - b_13 - r_14 - b_14 - r_15 - b_15 <= 9
 margin_102_0: 10.000000 c_102 - r_0 - b_0 - r_1 - b_1 - r_2 - b_2 - r_3 - b_3 - r_4 - b_4
  - r_5 - b_5 - r_6 - b_6 - r_7 - b_7 - r_8 - b_8 - r_9 - b_9 - r_10 - b_10 - r_11 - b_11
  - r_12 - b_12 - r_13 - b_13 - r_14 - b_14 - r_15 - b_15 <= 9
 margin_103_0: 10.000000 c_103 - r_0 - b_0 - r_1 - b_1 - r_2 - b_2 - r_3 - b_3 - r_4 - b_4
  - r_5 - b_5 - r_6 - b_6 - r_7 - b_7 + r_8 + b_8 - r_9 - b_9 - r_10 - b_10 - r_11 - b_11
  - r_12 - b_12 + r_13 + b_13 - r_14 - b_14 + r_15 + b_15 <= 9
 margin_104_0: 10.000000 c_104 - r_0 - b_0 - r_1 - b_1 - r_2 - b_2 - r_3 - b_3 - r_4 - b_4
  - r_5 - b_5 + r_6 + b_6 - r_7 - b_7 + r_8 + b_8 + r_9 + b_9 + r_10 + b_10 - r_11 - b_11
  - r_12 - b_12 + r_13 + b_13 + r_14 + b_14 + r_15 + b_15 <= 9
 margin_105_0: 10.000000 c_105 - r_0 - b_0 - r_1 - b_1 - r_2 - b_2 - r_3 - b_3 - r_4 - b_4
  - r_5 - b_5 - r_6 - b_6 - r_7 - b_7 - r_8 - b_8 - r_9 - b_9 - r_10 - b_10 - r_11 - b_11
  - r_12 - b_12 - r_13 - b_13 - r_14 - b_14 - r_15 - b_15 <= 9
 margin_106_0: 10.000000 c_106 - r_0 - b_0 - r_1 - b_1 - r_2 - b_2 - r_3 - b_3 - r_4 - b_4
  - r_5 - b_5 - r_6 - b_6 - r_7 - b_7 - r_8 - b_8 - r_9 - b_9 - r_10 - b_10 - r_11 - b_11
  - r_12 - b_12 - r_13 - b_13 - r_14 - b_14 - r_15 - b_15 <= 9
 margin_107_0: 10.000000 c_107 - r_0 - b_0 - r_1 - b_1 - r_2 - b_2 - r_3 - b_3 - r_4 - b_4
  - r_5 - b_5 - r_6 - b_6 - r_7 - b_7 - r_8 - b_8 - r_9 - b_9 - r_10 - b_10 - r_11 - b_11
  - r_12 - b_12 - r_13 - b_13 - r_14 - b_14 - r_15 - b_15 <= 9
 margin_108_0: 10.000000 c_108 - r_0 - b_0 - r_1 - b_1 - r_2 - b_2 - r_3 - b_3 - r_4 - b_4
  - r_5 - b_5 - r_6 - b_6 + r_7 + b_7 + r_8 + b_8 + r_9 + b_9 + r_10 + b_10 - r_11 - b_11
  - r_12 - b_12 + r_13 + b_13 + r_14 + b_14 + r_15 + b_15 <= 9
 margin_109_0: 10.000000 c_109 - r_0 - b_0 - r_1 - b_1 - r_2 - b_2 - r_3 - b_3 - r_4 - b_4
  - r_5 - b_5 - r_6 - b_6 - r_7 - b_7 - r_8 - b_8 - r_9 - b_9 - r_10 - b_10 - r_11 - b_11
  - r_12 - b_12 - r_13 - b_13 - r_14 - b_14 - r_15 - b_15 <= 9
 margin_110_0: 10.000000 c_110 - r_0 - b_0 - r_1 - b_1 - r_2 - b_2 - r_3 - b_3 - r_4 - b_4
  - r_5 - b_5 - r_6 - b_6 - r_7 - b_7 - r_8 - b_8 - r_9 - b_9 - r_10 - b_10 - r_11 - b_11
  - r_12 - b_12 + r_13 + b_13 - r_14 - b_14 - r_15 - b_15 <= 9
 margin_111_0: 10.000000 c_111 - r_0 - b_0 - r_1 - b_1 - r_2 - b_2 - r_3 - b_3 - r_4 - b_4
  - r_5 - b_5 - r_6 - b_6 - r_7 - b_7 - r_8 - b_8 - r_9 - b_9 + r_10 + b_10 - r_11 - b_11
  - r_12 - b_12 - r_13 - b_13 + r_14 + b_14 - r_15 - b_15 <= 9
 margin_112_0: 10.000000 c_112 - r_0 - b_0 - r_1 - b_1 - r_2 - b_2 - r_3 - b_3 - r_4 - b_4
  - r_5 - b_5 - r_6 - b_6 + r_7 + b_7 + r_8 + b_8 + r_9 + b_9 + r_10 + b_10 - r_11 - b_11
  - r_12 - b_12 - r_13 - b_13 + r_14 + b_14 + r_15 + b_15 <= 9
Binary
 r_0
 r_1
 r_2
 r_3
 r_4
 r_5
 r_6
 r_7
 r_8
 r_9
 r_10
 r_11
 r_12
 r_13
 r_14
 r_15
 b_0
 b_1
 b_2
 b_3
 b_4
 b_5
 b_6
 b_7
 b_8
 b_9
 b_10
 b_11
 b_12
 b_13
 b_14
 b_15
 c_0
 c_1
 c_2
 c_3
 c_4
 c_5
 c_6
 c_7
 c_8
 c_9
 c_10
 c_11
 c_12
 c_13
 c_14
 c_15
 c_16
 c_17
 c_18
 c_19
 c_20
 c_21
 c_22
 c_23
 c_24
 c_25
 c_26
 c_27
 c_28
 c_29
 c_30
 c_31
 c_32
 c_33
 c_34
 c_35
 c_36
 c_37
 c_38
 c_39
 c_40
 c_41
 c_42
 c_43
 c_44
 c_45
 c_46
 c_47
 c_48
 c_49
 c_50
 c_51
 c_52
 c_53
 c_54
 c_55
 c_56
 c_57
 c_58
 c_59
 c_60
 c_61
 c_62
 c_63
 c_64
 c_65
 c_66
 c_67
 c_68
 c_69
 c_70
 c_71
 c_72
 c_73
 c_74
 c_75
 c_76
 c_77
 c_78
 c_79
 c_80
 c_81
 c_82
 c_83
 c_84
 c_85
 c_86
 c_87
 c_88
 c_89
 c_90
 c_91
 c_92
 c_93
 c_94
 c_95
 c_96
 c_97
 c_98
 c_99
 c_100
 c_101
 c_102
 c_103
 c_104
 c_105
 c_106
 c_107
 c_108
 c_109
 c_110
 c_111
 c_112
End
